Please solve the following SAT Problem encoded in DIMACS format, only return a single solution assignment without explanations, if there is any: 
p cnf 10 60
3 -5 4 0
1 -2 8 0
3 8 9 0
3 4 -10 0
9 8 -2 0
-2 3 -5 0
-10 3 4 0
1 -5 6 0
-6 7 -9 0
8 -10 -6 0
6 1 2 0
9 8 3 0
4 8 -10 0
9 4 -10 0
-10 4 1 0
-9 4 8 0
8 4 -5 0
-2 8 -6 0
4 8 -5 0
-7 8 5 0
-2 8 -5 0
9 -10 -7 0
-6 1 3 0
4 6 -10 0
-3 -10 -2 0
5 6 -7 0
-7 4 -10 0
1 -10 -7 0
3 9 -6 0
3 1 -6 0
-6 10 -2 0
-5 -2 -8 0
-2 -6 9 0
4 -5 3 0
4 8 -2 0
-6 9 -1 0
-7 5 -10 0
-7 -10 -6 0
8 -2 -7 0
-6 1 4 0
1 -7 -2 0
-6 -7 -10 0
1 3 -6 0
3 1 9 0
-6 8 9 0
-7 6 3 0
1 2 4 0
-4 -9 3 0
-6 9 -7 0
9 5 3 0
3 4 -6 0
8 2 -5 0
4 5 -10 0
-7 4 -5 0
-6 1 -7 0
-7 4 9 0
-10 -5 9 0
-7 -5 -2 0
8 6 3 0
-10 4 5 0

